100 100 100
50
39 85 72
11 84 96
36 10 34
12 76 71
64 73 56
26 77 97
30 23 17
46 27 47
47 69 67
29 71 98
88 69 64
47 95 99
20 95 93
23 8 32
67 73 55
69 46 95
47 80 85
10 87 91
10 100 96
45 100 84
15 99 82
93 93 38
82 43 95
98 38 97
69 90 72
66 90 25
26 78 88
37 10 21
84 17 69
47 96 99
19 72 74
4 77 73
51 97 51
38 74 95
23 42 26
72 86 64
6 86 67
86 25 88
5 74 88
92 90 10
32 82 70
24 80 93
24 95 74
66 77 86
47 82 77
7 76 76
38 70 99
92 80 39
46 93 92
13 71 91
